38639520368536461395014,14,1,2,06,3,1,2,013,12,1,2,012,8,1,2,07,7,1,2,07,7,1,2,07,8,1,2,03,13,1,2,02,8,1,2,010,9,1,2,07,4,1,2,06,1,1,2,01,1,1,2,010,8,1,2,06,14,1,2,010,12,1,2,01,7,1,2,011,10,1,2,05,15,1,2,02,3,1,2,010,8,1,2,09,4,1,2,07,11,1,2,07,4,1,2,04,12,1,2,011,7,1,2,011,9,1,2,03,9,1,2,01,8,1,2,010,5,1,2,010,14,1,2,04,8,1,2,010,3,1,2,08,11,1,2,06,10,1,2,04,10,1,2,010,12,1,2,03,1,1,2,06,13,1,2,08,11,1,2,011,14,1,2,09,15,1,2,04,13,1,2,06,11,1,2,011,4,1,2,06,6,1,2,02,8,1,2,011,3,1,2,09,9,1,2,04,1,1,2,0